
Gurobi 10.0.1 (win64) logging started Sat Sep 16 16:57:19 2023

Set parameter LogFile to value "./results-heuristic-start//log/Fattahi_setup_11_modified_old_deadline.log"
Gurobi Optimizer version 10.0.1 build v10.0.1rc0 (win64)

CPU model: AMD Ryzen 7 3700X 8-Core Processor, instruction set [SSE2|AVX|AVX2]
Thread count: 8 physical cores, 16 logical processors, using up to 16 threads

Optimize a model with 289 rows, 303 columns and 1107 nonzeros
Model fingerprint: 0xd68ed044
Model has 1 quadratic constraint
Variable types: 33 continuous, 270 integer (269 binary)
Coefficient statistics:
  Matrix range     [1e+00, 1e+06]
  QMatrix range    [1e+00, 1e+00]
  QLMatrix range   [1e+00, 4e+02]
  Objective range  [1e+00, 1e+00]
  Bounds range     [1e+00, 1e+00]
  RHS range        [1e+00, 3e+06]

Warning: Completing partial solution with 255 unfixed non-continuous variables out of 270
User MIP start did not produce a new incumbent solution
User MIP start violates constraint initial_start_time_job0_stage0_machine2_constraint by 420.000000000

Presolve removed 47 rows and 175 columns
Presolve time: 0.00s
Presolved: 255 rows, 139 columns, 1080 nonzeros
Variable types: 44 continuous, 95 integer (94 binary)
Found heuristic solution: objective 7366.0000000
Found heuristic solution: objective 6539.0000000
Found heuristic solution: objective 4459.0000000

Root relaxation: objective 0.000000e+00, 44 iterations, 0.00 seconds (0.00 work units)

    Nodes    |    Current Node    |     Objective Bounds      |     Work
 Expl Unexpl |  Obj  Depth IntInf | Incumbent    BestBd   Gap | It/Node Time

     0     0    0.00000    0    9 4459.00000    0.00000   100%     -    0s
Another try with MIP start
     0     0    0.00000    0   11 4459.00000    0.00000   100%     -    0s
     0     0    0.00000    0   13 4459.00000    0.00000   100%     -    0s
     0     0    0.00000    0   18 4459.00000    0.00000   100%     -    0s
H    0     0                    4262.0000000    0.00000   100%     -    0s
     0     0    0.00000    0   17 4262.00000    0.00000   100%     -    0s
H    0     0                    4010.0000000  882.13718  78.0%     -    0s
     0     0  882.13718    0   29 4010.00000  882.13718  78.0%     -    0s
     0     0 1511.50887    0   29 4010.00000 1511.50887  62.3%     -    0s
     0     0 1614.38214    0   23 4010.00000 1614.38214  59.7%     -    0s
     0     0 1614.38214    0   25 4010.00000 1614.38214  59.7%     -    0s
     0     0 1618.28576    0   26 4010.00000 1618.28576  59.6%     -    0s
     0     0 1621.15422    0   31 4010.00000 1621.15422  59.6%     -    0s
     0     0 1634.98675    0   28 4010.00000 1634.98675  59.2%     -    0s
H    0     0                    3745.0000000 1634.98675  56.3%     -    0s
     0     0 1639.23166    0   29 3745.00000 1639.23166  56.2%     -    0s
     0     0 1642.56996    0   33 3745.00000 1642.56996  56.1%     -    0s
     0     0 1642.56996    0   27 3745.00000 1642.56996  56.1%     -    0s
     0     1 1642.56996    0   25 3745.00000 1642.56996  56.1%     -    0s
H  394   253                    3716.0000000 1704.15645  54.1%   7.7    0s
H  424   253                    3460.0000000 1704.15645  50.7%   7.5    0s
H  512   290                    3444.0000000 1715.77875  50.2%   7.3    0s
H 1611   711                    3443.0000000 1775.11988  48.4%   6.2    0s
H 2803  1126                    3442.0000000 1813.73125  47.3%   5.8    0s
H 3352  1096                    3336.0000000 1835.36581  45.0%   5.7    0s
H 4334  1313                    3332.0000000 1835.36581  44.9%   2.5    0s
H 4354  1253                    3314.0000000 1835.36581  44.6%   2.5    0s
* 5341  1229              42    3248.0000000 1835.36581  43.5%   3.5    0s
H 6483  1087                    3246.0000000 1835.36581  43.5%   4.1    0s
H 7320  1197                    3245.0000000 1943.00000  40.1%   4.5    0s
H 7321  1184                    3220.0000000 1943.00000  39.7%   4.5    0s
H14848  1439                    3202.0000000 2334.00000  27.1%   6.0    1s

Cutting planes:
  Learned: 2
  Gomory: 3
  Cover: 1
  Implied bound: 2
  MIR: 1
  Flow cover: 14
  RLT: 1

Explored 24506 nodes (167885 simplex iterations) in 1.41 seconds (0.91 work units)
Thread count was 16 (of 16 available processors)

Solution count 10: 3202 3202 3220 ... 3442

Optimal solution found (tolerance 1.00e-04)
Best objective 3.202000000000e+03, best bound 3.202000000000e+03, gap 0.0000%
Warning: constraint name "precedence between 0,1 to 0,0 if x_[j,l,h,z,i]=1" has a space
Warning: constraint name "precedence between 0,1 to 0,0 if x_[j,l,h,z,i]=1" has a space
Warning: default constraint names used to write mps file
